13,4	0,0	19,2	6,4	0,0	0,0	0,0	0,0	0,0	11,7
15,9	10,9	0,0	5,7	18,2	0,0	0,0	11,6	0,0	0,0
0,0	0,0	15,3	0,0	6,5	5,3	0,0	0,0	6,8	0,0
8,0	0,0	12,4	0,0	0,0	0,0	12,3	0,0	0,0	0,0
0,0	6,6	0,0	9,9	15,6	0,0	0,0	16,7	0,0	0,0
0,0	16,0	14,2	0,0	19,1	6,1	0,0	0,0	19,0	0,0
0,0	5,1	0,0	7,9	0,0	0,0	11,2	0,0	0,0	6,9
15,1	0,0	19,1	0,0	0,0	0,0	0,0	0,0	0,0	10,2
0,0	9,3	0,0	8,4	17,6	0,0	0,0	16,9	0,0	0,0
0,0	0,0	17,2	0,0	0,0	19,5	17,7	0,0	0,0	7,9
									
3,7	2,6	3,0	3,3	3,4	4,8	4,4	4,5	2,9	4,4
